DIMACS_lns/graph-1000-740.col
p edge 1000 1836
e 1 843
e 1 310
e 1 706
e 1 38
e 1 467
e 2 724
e 2 196
e 2 20
e 2 571
e 3 642
e 3 664
e 3 515
e 3 50
e 3 275
e 3 525
e 3 32
e 4 358
e 4 50
e 4 712
e 4 181
e 4 11
e 4 236
e 4 569
e 5 38
e 5 329
e 5 172
e 5 584
e 5 254
e 5 936
e 6 160
e 6 406
e 6 489
e 7 631
e 7 608
e 7 659
e 10 881
e 10 921
e 10 566
e 10 389
e 10 186
e 11 139
e 11 83
e 11 676
e 13 621
e 13 388
e 13 950
e 13 320
e 15 414
e 15 840
e 15 682
e 15 754
e 15 909
e 15 154
e 16 309
e 16 454
e 16 869
e 16 875
e 16 404
e 18 600
e 18 662
e 18 669
e 18 657
e 18 607
e 18 409
e 18 80
e 18 789
e 19 259
e 19 728
e 19 311
e 19 401
e 19 679
e 20 998
e 20 371
e 20 706
e 21 91
e 21 95
e 21 636
e 21 500
e 21 289
e 22 838
e 22 850
e 22 247
e 22 290
e 22 89
e 22 957
e 23 991
e 23 441
e 23 587
e 23 452
e 23 927
e 24 591
e 24 155
e 24 50
e 24 480
e 24 432
e 24 628
e 24 304
e 25 998
e 25 80
e 25 722
e 25 332
e 26 621
e 26 773
e 26 802
e 27 633
e 27 323
e 27 445
e 31 334
e 31 416
e 31 880
e 31 295
e 31 36
e 31 670
e 32 987
e 32 283
e 32 675
e 33 83
e 33 240
e 33 772
e 33 163
e 33 520
e 33 128
e 35 950
e 35 457
e 35 468
e 35 67
e 36 694
e 36 380
e 36 748
e 36 729
e 36 593
e 36 190
e 37 517
e 37 222
e 37 193
e 37 528
e 37 393
e 38 547
e 38 56
e 38 366
e 38 990
e 38 452
e 38 890
e 41 724
e 41 938
e 41 64
e 41 422
e 42 933
e 42 634
e 42 956
e 42 160
e 43 552
e 43 448
e 43 438
e 43 197
e 43 298
e 43 662
e 44 70
e 44 918
e 44 98
e 44 669
e 45 122
e 45 271
e 45 332
e 45 930
e 45 377
e 45 772
e 46 904
e 46 844
e 46 748
e 47 515
e 47 529
e 47 723
e 47 235
e 47 455
e 47 476
e 47 393
e 49 850
e 49 463
e 49 898
e 49 966
e 49 565
e 49 521
e 49 965
e 50 248
e 51 560
e 51 726
e 51 384
e 51 224
e 51 75
e 51 969
e 52 947
e 52 158
e 52 771
e 54 963
e 54 278
e 54 649
e 54 108
e 56 612
e 56 957
e 56 123
e 56 162
e 56 776
e 56 306
e 58 634
e 58 666
e 58 884
e 58 339
e 58 374
e 59 411
e 59 219
e 59 305
e 60 468
e 60 560
e 60 118
e 60 462
e 60 606
e 60 928
e 60 754
e 60 452
e 61 542
e 61 421
e 61 208
e 61 555
e 61 519
e 61 648
e 61 166
e 62 159
e 62 325
e 62 840
e 63 276
e 63 510
e 63 370
e 63 1000
e 63 821
e 63 334
e 64 249
e 64 911
e 64 696
e 66 589
e 66 452
e 66 962
e 66 181
e 66 855
e 66 282
e 66 113
e 67 283
e 67 527
e 67 275
e 67 145
e 67 420
e 67 227
e 68 878
e 68 435
e 68 478
e 69 537
e 69 854
e 69 988
e 70 247
e 70 508
e 70 968
e 70 232
e 70 727
e 72 638
e 72 801
e 72 350
e 73 272
e 73 588
e 73 955
e 74 718
e 74 728
e 74 404
e 74 576
e 75 278
e 75 445
e 76 692
e 76 899
e 76 490
e 76 250
e 77 355
e 77 875
e 77 676
e 77 852
e 78 715
e 78 729
e 78 855
e 78 633
e 79 751
e 79 769
e 79 637
e 80 186
e 80 300
e 80 205
e 82 250
e 82 809
e 82 917
e 82 288
e 83 191
e 83 356
e 83 664
e 84 442
e 84 447
e 84 501
e 84 997
e 84 883
e 84 386
e 84 896
e 86 643
e 86 909
e 86 990
e 86 437
e 87 848
e 87 536
e 87 901
e 87 220
e 87 673
e 88 899
e 88 453
e 88 127
e 89 336
e 89 644
e 89 886
e 89 512
e 89 449
e 89 175
e 90 957
e 90 369
e 90 710
e 90 652
e 91 697
e 91 419
e 91 466
e 91 321
e 91 506
e 91 425
e 91 258
e 91 272
e 94 780
e 94 852
e 94 350
e 95 137
e 95 667
e 95 665
e 95 118
e 95 453
e 96 779
e 96 553
e 96 611
e 96 910
e 97 853
e 97 565
e 97 336
e 97 295
e 97 208
e 97 592
e 98 995
e 98 766
e 98 636
e 101 524
e 101 258
e 101 962
e 101 672
e 103 722
e 103 346
e 103 796
e 103 224
e 104 946
e 104 490
e 104 606
e 105 171
e 105 106
e 105 931
e 105 887
e 106 471
e 106 557
e 106 856
e 106 852
e 106 865
e 107 304
e 107 923
e 107 778
e 107 480
e 107 497
e 107 265
e 107 366
e 108 868
e 108 383
e 108 869
e 108 844
e 109 217
e 109 400
e 109 582
e 111 225
e 111 189
e 111 384
e 111 313
e 112 688
e 112 540
e 112 488
e 112 761
e 112 129
e 112 168
e 112 546
e 112 581
e 113 511
e 113 155
e 113 523
e 113 126
e 113 691
e 114 147
e 114 556
e 114 293
e 114 273
e 114 660
e 114 511
e 115 489
e 115 264
e 115 137
e 115 389
e 115 578
e 115 461
e 116 923
e 116 120
e 116 650
e 116 485
e 116 814
e 116 751
e 116 494
e 118 880
e 118 868
e 118 288
e 119 556
e 119 305
e 119 221
e 119 812
e 120 979
e 120 536
e 120 328
e 120 288
e 121 263
e 121 380
e 121 333
e 121 864
e 121 882
e 122 932
e 122 621
e 122 964
e 122 539
e 122 324
e 123 551
e 123 219
e 123 200
e 123 307
e 123 216
e 124 728
e 124 560
e 124 569
e 124 703
e 124 319
e 124 577
e 126 348
e 126 926
e 126 159
e 126 315
e 126 138
e 126 607
e 126 560
e 127 485
e 127 350
e 127 712
e 127 334
e 127 855
e 128 846
e 128 149
e 128 150
e 129 833
e 129 311
e 129 343
e 129 769
e 130 409
e 130 537
e 130 188
e 132 854
e 132 443
e 132 764
e 133 999
e 133 875
e 133 415
e 134 726
e 134 277
e 134 846
e 135 187
e 135 757
e 135 588
e 135 236
e 135 642
e 136 141
e 136 603
e 136 967
e 137 806
e 137 562
e 138 255
e 138 344
e 138 835
e 138 430
e 138 884
e 138 935
e 139 228
e 139 776
e 140 973
e 140 873
e 140 672
e 140 806
e 140 163
e 141 919
e 141 210
e 141 182
e 144 338
e 144 809
e 144 260
e 145 819
e 145 246
e 145 328
e 145 545
e 146 187
e 146 936
e 146 776
e 147 344
e 147 631
e 147 925
e 147 218
e 148 944
e 148 708
e 148 389
e 148 504
e 149 253
e 149 448
e 150 293
e 150 181
e 150 925
e 150 354
e 152 304
e 152 612
e 152 626
e 152 468
e 152 963
e 152 624
e 153 735
e 153 816
e 153 710
e 154 693
e 154 182
e 154 513
e 154 691
e 155 320
e 155 680
e 155 189
e 155 440
e 155 740
e 156 208
e 156 816
e 156 363
e 157 298
e 157 281
e 157 732
e 157 911
e 158 758
e 158 209
e 159 552
e 159 559
e 159 617
e 159 397
e 160 837
e 161 562
e 161 764
e 161 340
e 161 327
e 162 397
e 162 442
e 162 245
e 163 411
e 163 772
e 163 947
e 164 601
e 164 659
e 164 947
e 165 596
e 165 548
e 165 278
e 165 452
e 165 600
e 165 829
e 166 194
e 166 226
e 166 346
e 166 988
e 166 324
e 168 582
e 168 546
e 170 279
e 170 504
e 170 678
e 170 300
e 170 968
e 171 646
e 171 435
e 171 719
e 171 933
e 171 611
e 172 536
e 172 370
e 172 294
e 172 521
e 174 626
e 174 957
e 174 683
e 174 301
e 174 368
e 175 621
e 175 395
e 175 787
e 176 978
e 176 812
e 176 863
e 176 524
e 176 421
e 178 606
e 178 454
e 178 701
e 179 253
e 179 715
e 179 228
e 180 554
e 180 551
e 180 483
e 181 360
e 181 821
e 182 371
e 182 186
e 182 587
e 182 941
e 182 354
e 182 590
e 183 350
e 183 306
e 183 567
e 185 745
e 185 593
e 185 491
e 186 545
e 187 900
e 187 819
e 187 699
e 188 390
e 188 525
e 188 544
e 188 426
e 189 333
e 189 728
e 189 200
e 190 431
e 190 787
e 190 329
e 191 937
e 191 242
e 191 370
e 193 656
e 193 802
e 194 890
e 194 209
e 196 419
e 196 591
e 196 501
e 197 903
e 197 561
e 197 447
e 197 662
e 198 270
e 198 601
e 198 726
e 200 608
e 200 899
e 200 665
e 200 789
e 202 565
e 202 848
e 202 958
e 203 675
e 203 399
e 203 951
e 203 249
e 203 551
e 204 587
e 204 251
e 204 358
e 205 802
e 205 829
e 205 797
e 206 601
e 206 924
e 206 442
e 206 401
e 207 466
e 207 843
e 207 404
e 207 869
e 207 356
e 208 668
e 208 995
e 208 247
e 208 356
e 209 718
e 209 386
e 209 237
e 209 632
e 209 536
e 210 933
e 210 401
e 211 235
e 211 694
e 211 577
e 211 346
e 214 373
e 214 491
e 214 374
e 215 443
e 215 536
e 215 439
e 215 759
e 216 235
e 216 826
e 216 402
e 217 628
e 217 717
e 217 715
e 217 966
e 218 443
e 218 233
e 219 237
e 219 684
e 220 529
e 220 504
e 220 756
e 220 943
e 221 559
e 221 888
e 222 879
e 222 309
e 222 745
e 222 727
e 222 557
e 223 521
e 223 296
e 223 643
e 223 398
e 224 773
e 224 999
e 224 386
e 224 454
e 225 310
e 225 822
e 225 699
e 225 720
e 226 706
e 226 377
e 226 357
e 227 577
e 227 840
e 227 856
e 227 512
e 228 455
e 228 656
e 230 430
e 230 608
e 230 950
e 231 448
e 231 551
e 231 615
e 232 429
e 232 981
e 232 517
e 233 539
e 233 829
e 233 680
e 233 962
e 235 567
e 235 238
e 236 638
e 236 636
e 237 497
e 237 298
e 238 268
e 238 712
e 238 521
e 238 851
e 238 311
e 238 998
e 239 854
e 239 748
e 239 327
e 239 720
e 239 878
e 240 633
e 240 364
e 240 999
e 240 336
e 241 607
e 241 887
e 241 605
e 242 915
e 242 480
e 244 832
e 244 466
e 244 525
e 244 346
e 245 984
e 245 997
e 245 545
e 245 662
e 245 690
e 246 923
e 246 247
e 247 672
e 247 513
e 248 815
e 248 311
e 248 699
e 249 316
e 249 581
e 249 607
e 249 540
e 250 704
e 250 679
e 251 493
e 251 399
e 253 487
e 253 951
e 254 551
e 254 366
e 254 289
e 254 519
e 255 624
e 255 409
e 256 478
e 256 906
e 256 511
e 258 733
e 258 968
e 259 927
e 259 398
e 259 773
e 259 931
e 260 710
e 260 965
e 261 853
e 261 428
e 261 376
e 261 575
e 261 299
e 261 787
e 261 585
e 263 264
e 263 885
e 264 759
e 264 364
e 264 670
e 264 706
e 264 516
e 264 301
e 265 685
e 265 746
e 266 737
e 266 978
e 266 513
e 266 270
e 267 333
e 267 795
e 267 380
e 267 594
e 268 350
e 268 537
e 268 949
e 268 780
e 270 300
e 270 489
e 270 613
e 271 398
e 271 947
e 271 517
e 271 697
e 272 510
e 272 511
e 273 665
e 273 328
e 275 457
e 275 562
e 275 634
e 275 547
e 276 438
e 276 840
e 276 476
e 276 596
e 276 374
e 277 608
e 277 665
e 277 963
e 278 851
e 279 618
e 279 531
e 281 735
e 281 876
e 281 991
e 281 891
e 281 613
e 282 992
e 282 949
e 282 777
e 282 629
e 283 891
e 283 608
e 283 329
e 283 603
e 285 823
e 285 669
e 285 692
e 285 732
e 285 347
e 287 821
e 287 645
e 287 333
e 287 540
e 287 887
e 287 362
e 288 741
e 289 420
e 290 318
e 290 719
e 291 514
e 291 556
e 291 309
e 291 343
e 293 329
e 293 649
e 293 637
e 294 512
e 294 358
e 294 524
e 294 821
e 294 342
e 294 755
e 295 590
e 295 442
e 295 932
e 296 568
e 296 768
e 296 463
e 298 446
e 298 879
e 298 454
e 298 944
e 299 347
e 299 416
e 299 688
e 299 936
e 299 864
e 299 675
e 300 457
e 300 865
e 300 471
e 300 478
e 301 545
e 301 806
e 301 617
e 303 878
e 303 325
e 303 685
e 304 785
e 304 833
e 304 810
e 304 728
e 304 528
e 305 568
e 305 821
e 305 933
e 306 363
e 306 500
e 306 714
e 307 669
e 307 736
e 309 588
e 309 500
e 310 981
e 310 626
e 311 716
e 312 485
e 312 984
e 312 579
e 312 880
e 313 815
e 313 720
e 314 340
e 314 388
e 314 603
e 314 429
e 315 449
e 315 417
e 315 346
e 316 768
e 316 943
e 316 779
e 317 415
e 317 718
e 317 346
e 318 358
e 318 414
e 318 515
e 318 795
e 319 693
e 319 610
e 320 883
e 320 527
e 320 538
e 320 822
e 321 991
e 321 715
e 323 903
e 323 626
e 323 608
e 324 797
e 324 395
e 325 947
e 325 466
e 325 863
e 325 329
e 327 521
e 327 615
e 327 491
e 328 923
e 328 593
e 328 612
e 328 449
e 328 357
e 332 758
e 332 751
e 332 718
e 334 571
e 334 455
e 334 404
e 334 989
e 334 888
e 334 817
e 334 718
e 334 969
e 336 509
e 336 467
e 336 649
e 338 551
e 338 947
e 338 871
e 338 886
e 338 837
e 339 921
e 339 668
e 339 475
e 339 508
e 339 514
e 339 366
e 339 646
e 340 554
e 340 944
e 340 433
e 340 551
e 340 711
e 341 747
e 341 850
e 341 727
e 341 682
e 342 530
e 342 930
e 343 725
e 344 888
e 344 651
e 344 417
e 346 369
e 346 657
e 347 859
e 347 362
e 347 796
e 347 648
e 348 421
e 348 796
e 348 832
e 348 552
e 350 375
e 350 540
e 350 944
e 350 648
e 353 515
e 353 771
e 353 411
e 353 760
e 354 490
e 354 821
e 354 458
e 355 624
e 355 373
e 356 740
e 356 568
e 356 923
e 356 757
e 357 542
e 357 430
e 358 682
e 358 542
e 358 814
e 358 708
e 358 912
e 360 524
e 360 819
e 360 546
e 361 569
e 361 445
e 361 729
e 362 928
e 362 896
e 362 512
e 362 383
e 363 377
e 363 840
e 364 581
e 364 495
e 364 790
e 366 385
e 366 917
e 366 511
e 366 710
e 368 946
e 368 868
e 368 517
e 369 937
e 369 552
e 369 530
e 369 777
e 369 938
e 369 768
e 370 571
e 370 955
e 370 497
e 371 754
e 371 1000
e 373 590
e 373 546
e 373 451
e 373 900
e 373 796
e 374 426
e 374 653
e 374 875
e 375 511
e 375 601
e 375 571
e 376 919
e 376 890
e 376 598
e 377 635
e 377 856
e 377 732
e 379 891
e 379 844
e 379 548
e 379 901
e 380 868
e 380 389
e 383 581
e 383 668
e 383 440
e 383 835
e 384 941
e 385 810
e 385 549
e 386 886
e 386 657
e 386 409
e 387 819
e 387 538
e 387 676
e 387 849
e 387 464
e 388 946
e 388 587
e 390 508
e 390 567
e 393 935
e 393 930
e 393 803
e 393 769
e 393 404
e 393 973
e 395 876
e 395 732
e 397 611
e 397 430
e 397 507
e 397 454
e 398 679
e 399 629
e 399 405
e 399 538
e 399 925
e 400 878
e 400 852
e 401 767
e 401 785
e 402 431
e 402 592
e 404 878
e 404 427
e 404 591
e 405 802
e 405 889
e 405 554
e 405 790
e 405 477
e 406 935
e 406 883
e 406 922
e 406 898
e 409 794
e 411 751
e 411 566
e 411 992
e 411 700
e 414 638
e 414 578
e 415 773
e 415 720
e 415 949
e 416 726
e 416 728
e 417 660
e 417 439
e 419 708
e 419 635
e 420 675
e 421 463
e 422 889
e 422 461
e 422 423
e 422 878
e 423 643
e 423 838
e 425 737
e 425 768
e 425 472
e 425 588
e 426 972
e 426 725
e 427 893
e 427 885
e 427 955
e 427 536
e 428 589
e 428 602
e 429 768
e 431 760
e 431 655
e 432 797
e 432 921
e 433 986
e 433 577
e 433 714
e 434 821
e 434 617
e 434 651
e 434 568
e 435 775
e 435 472
e 435 660
e 435 801
e 437 728
e 437 880
e 438 826
e 438 554
e 438 483
e 439 588
e 439 618
e 439 500
e 440 755
e 441 833
e 441 830
e 441 484
e 441 843
e 442 828
e 442 551
e 442 735
e 442 690
e 442 589
e 443 545
e 445 864
e 446 460
e 446 874
e 447 712
e 447 837
e 448 493
e 448 508
e 449 947
e 451 483
e 451 838
e 451 972
e 452 979
e 452 606
e 453 787
e 455 504
e 455 854
e 455 887
e 455 884
e 457 801
e 457 832
e 458 472
e 458 974
e 458 655
e 459 936
e 459 935
e 459 547
e 459 912
e 459 530
e 460 792
e 460 528
e 461 516
e 461 875
e 461 926
e 461 900
e 461 721
e 462 679
e 462 527
e 463 559
e 464 747
e 464 531
e 467 511
e 467 809
e 467 628
e 471 717
e 471 530
e 472 792
e 472 997
e 472 697
e 472 494
e 472 889
e 472 777
e 475 933
e 475 539
e 475 830
e 475 780
e 476 568
e 477 719
e 477 775
e 478 631
e 478 649
e 480 780
e 480 759
e 483 650
e 483 666
e 484 850
e 484 564
e 484 766
e 485 766
e 485 813
e 485 822
e 486 781
e 486 891
e 486 673
e 486 901
e 487 965
e 487 794
e 487 937
e 487 692
e 488 612
e 488 949
e 488 602
e 490 694
e 490 803
e 490 737
e 491 986
e 491 520
e 493 743
e 493 684
e 493 719
e 494 606
e 495 816
e 495 890
e 496 530
e 496 667
e 496 596
e 496 999
e 496 838
e 500 856
e 501 869
e 501 708
e 501 531
e 501 555
e 502 798
e 502 910
e 502 928
e 504 968
e 506 559
e 506 962
e 506 919
e 507 938
e 507 548
e 508 904
e 508 936
e 508 933
e 509 511
e 509 986
e 510 872
e 510 514
e 511 850
e 511 572
e 512 598
e 513 768
e 514 802
e 514 743
e 515 561
e 515 717
e 516 683
e 517 779
e 519 891
e 519 531
e 520 632
e 520 795
e 521 596
e 521 903
e 523 643
e 523 608
e 527 992
e 527 898
e 528 974
e 528 594
e 529 544
e 529 704
e 530 745
e 530 855
e 531 822
e 531 943
e 531 594
e 537 966
e 537 699
e 538 871
e 538 868
e 538 617
e 539 976
e 539 735
e 539 828
e 540 629
e 540 612
e 540 598
e 540 755
e 540 639
e 540 682
e 542 899
e 542 991
e 543 689
e 543 777
e 543 923
e 544 575
e 544 806
e 544 824
e 544 991
e 546 937
e 546 931
e 547 933
e 548 968
e 549 846
e 549 717
e 549 652
e 549 757
e 551 893
e 551 610
e 552 947
e 552 628
e 552 893
e 552 794
e 553 696
e 553 585
e 554 955
e 554 921
e 555 903
e 556 667
e 557 978
e 557 989
e 559 772
e 559 723
e 559 576
e 560 726
e 561 644
e 561 869
e 562 849
e 564 723
e 564 649
e 564 705
e 564 794
e 566 755
e 566 837
e 567 988
e 567 775
e 567 915
e 568 615
e 568 733
e 568 933
e 568 697
e 569 746
e 569 651
e 569 801
e 571 844
e 571 969
e 572 613
e 572 577
e 574 768
e 574 989
e 574 771
e 575 874
e 575 952
e 575 653
e 576 591
e 576 918
e 576 587
e 577 895
e 578 819
e 579 891
e 579 873
e 581 891
e 582 676
e 582 978
e 584 748
e 584 600
e 584 928
e 584 1000
e 585 636
e 587 987
e 589 882
e 590 840
e 590 990
e 590 689
e 590 896
e 591 952
e 591 889
e 592 850
e 593 694
e 593 976
e 593 600
e 593 962
e 594 925
e 595 664
e 595 635
e 595 850
e 596 964
e 596 933
e 598 830
e 600 728
e 601 709
e 602 846
e 602 679
e 603 844
e 603 610
e 604 1000
e 604 906
e 604 628
e 605 697
e 605 668
e 605 662
e 606 634
e 606 769
e 608 728
e 608 668
e 611 968
e 611 614
e 611 798
e 611 884
e 612 885
e 612 618
e 613 814
e 613 683
e 614 886
e 614 796
e 614 747
e 617 768
e 617 868
e 618 928
e 618 756
e 618 875
e 621 931
e 624 643
e 624 785
e 624 717
e 626 728
e 628 678
e 629 766
e 629 851
e 631 725
e 632 792
e 632 719
e 633 684
e 634 835
e 635 775
e 636 767
e 636 803
e 637 933
e 638 930
e 639 740
e 639 757
e 642 977
e 643 795
e 644 967
e 644 714
e 645 790
e 645 853
e 646 927
e 646 798
e 646 956
e 648 657
e 648 651
e 648 918
e 650 838
e 651 741
e 651 709
e 652 703
e 652 879
e 652 792
e 652 729
e 653 904
e 653 963
e 655 824
e 655 721
e 656 849
e 656 899
e 656 898
e 657 822
e 659 838
e 659 921
e 659 917
e 659 931
e 660 998
e 660 985
e 662 736
e 664 822
e 664 673
e 665 972
e 666 798
e 666 857
e 666 976
e 667 719
e 668 732
e 668 944
e 668 932
e 669 733
e 669 757
e 670 700
e 671 848
e 671 780
e 671 885
e 673 852
e 678 810
e 678 967
e 679 705
e 679 717
e 680 754
e 680 721
e 680 881
e 682 889
e 682 754
e 683 756
e 683 826
e 685 699
e 688 931
e 688 875
e 689 865
e 690 852
e 690 781
e 690 922
e 691 967
e 691 909
e 692 926
e 692 747
e 693 745
e 694 893
e 694 759
e 694 772
e 696 984
e 699 809
e 700 823
e 701 766
e 701 712
e 703 952
e 704 930
e 705 787
e 706 850
e 708 934
e 709 803
e 709 974
e 709 903
e 710 995
e 711 924
e 711 986
e 711 997
e 711 856
e 714 973
e 714 798
e 714 715
e 714 880
e 715 925
e 715 930
e 715 943
e 716 976
e 716 794
e 717 778
e 718 863
e 718 760
e 719 947
e 719 895
e 720 761
e 720 949
e 721 757
e 721 944
e 721 974
e 722 802
e 722 911
e 724 958
e 726 781
e 726 919
e 727 738
e 728 773
e 729 952
e 732 812
e 732 756
e 733 869
e 733 837
e 733 885
e 733 934
e 736 992
e 738 903
e 738 926
e 740 1000
e 741 817
e 743 859
e 746 864
e 748 885
e 751 919
e 751 884
e 756 998
e 756 896
e 757 767
e 757 944
e 758 853
e 759 944
e 761 947
e 764 981
e 767 803
e 768 978
e 768 897
e 769 973
e 771 872
e 771 874
e 773 881
e 775 785
e 775 851
e 775 969
e 776 941
e 777 964
e 778 910
e 778 956
e 780 801
e 781 790
e 781 789
e 781 995
e 787 835
e 789 806
e 794 857
e 795 813
e 796 838
e 802 963
e 803 931
e 810 895
e 812 844
e 813 998
e 813 897
e 815 934
e 817 851
e 817 872
e 819 838
e 819 972
e 821 941
e 823 921
e 824 957
e 824 915
e 826 985
e 828 890
e 828 910
e 833 846
e 837 899
e 837 977
e 843 850
e 850 884
e 852 853
e 854 964
e 854 984
e 855 978
e 856 999
e 857 968
e 859 986
e 863 955
e 871 987
e 872 977
e 872 897
e 873 889
e 873 951
e 875 884
e 875 985
e 876 949
e 879 895
e 882 922
e 882 891
e 888 949
e 895 991
e 896 935
e 897 1000
e 897 941
e 903 978
e 906 912
e 911 962
e 915 924
e 933 958
e 943 997
e 952 966
e 957 958
e 979 999
e 986 995
