txt_Ins/graph-1000-740.txt
n 1000
e 0 842
e 0 309
e 0 705
e 0 37
e 0 466
e 1 723
e 1 195
e 1 19
e 1 570
e 2 641
e 2 663
e 2 514
e 2 49
e 2 274
e 2 524
e 2 31
e 3 357
e 3 49
e 3 711
e 3 180
e 3 10
e 3 235
e 3 568
e 4 37
e 4 328
e 4 171
e 4 583
e 4 253
e 4 935
e 5 159
e 5 405
e 5 488
e 6 630
e 6 607
e 6 658
e 9 880
e 9 920
e 9 565
e 9 388
e 9 185
e 10 138
e 10 82
e 10 675
e 12 620
e 12 387
e 12 949
e 12 319
e 14 413
e 14 839
e 14 681
e 14 753
e 14 908
e 14 153
e 15 308
e 15 453
e 15 868
e 15 874
e 15 403
e 17 599
e 17 661
e 17 668
e 17 656
e 17 606
e 17 408
e 17 79
e 17 788
e 18 258
e 18 727
e 18 310
e 18 400
e 18 678
e 19 997
e 19 370
e 19 705
e 20 90
e 20 94
e 20 635
e 20 499
e 20 288
e 21 837
e 21 849
e 21 246
e 21 289
e 21 88
e 21 956
e 22 990
e 22 440
e 22 586
e 22 451
e 22 926
e 23 590
e 23 154
e 23 49
e 23 479
e 23 431
e 23 627
e 23 303
e 24 997
e 24 79
e 24 721
e 24 331
e 25 620
e 25 772
e 25 801
e 26 632
e 26 322
e 26 444
e 30 333
e 30 415
e 30 879
e 30 294
e 30 35
e 30 669
e 31 986
e 31 282
e 31 674
e 32 82
e 32 239
e 32 771
e 32 162
e 32 519
e 32 127
e 34 949
e 34 456
e 34 467
e 34 66
e 35 693
e 35 379
e 35 747
e 35 728
e 35 592
e 35 189
e 36 516
e 36 221
e 36 192
e 36 527
e 36 392
e 37 546
e 37 55
e 37 365
e 37 989
e 37 451
e 37 889
e 40 723
e 40 937
e 40 63
e 40 421
e 41 932
e 41 633
e 41 955
e 41 159
e 42 551
e 42 447
e 42 437
e 42 196
e 42 297
e 42 661
e 43 69
e 43 917
e 43 97
e 43 668
e 44 121
e 44 270
e 44 331
e 44 929
e 44 376
e 44 771
e 45 903
e 45 843
e 45 747
e 46 514
e 46 528
e 46 722
e 46 234
e 46 454
e 46 475
e 46 392
e 48 849
e 48 462
e 48 897
e 48 965
e 48 564
e 48 520
e 48 964
e 49 247
e 50 559
e 50 725
e 50 383
e 50 223
e 50 74
e 50 968
e 51 946
e 51 157
e 51 770
e 53 962
e 53 277
e 53 648
e 53 107
e 55 611
e 55 956
e 55 122
e 55 161
e 55 775
e 55 305
e 57 633
e 57 665
e 57 883
e 57 338
e 57 373
e 58 410
e 58 218
e 58 304
e 59 467
e 59 559
e 59 117
e 59 461
e 59 605
e 59 927
e 59 753
e 59 451
e 60 541
e 60 420
e 60 207
e 60 554
e 60 518
e 60 647
e 60 165
e 61 158
e 61 324
e 61 839
e 62 275
e 62 509
e 62 369
e 62 999
e 62 820
e 62 333
e 63 248
e 63 910
e 63 695
e 65 588
e 65 451
e 65 961
e 65 180
e 65 854
e 65 281
e 65 112
e 66 282
e 66 526
e 66 274
e 66 144
e 66 419
e 66 226
e 67 877
e 67 434
e 67 477
e 68 536
e 68 853
e 68 987
e 69 246
e 69 507
e 69 967
e 69 231
e 69 726
e 71 637
e 71 800
e 71 349
e 72 271
e 72 587
e 72 954
e 73 717
e 73 727
e 73 403
e 73 575
e 74 277
e 74 444
e 75 691
e 75 898
e 75 489
e 75 249
e 76 354
e 76 874
e 76 675
e 76 851
e 77 714
e 77 728
e 77 854
e 77 632
e 78 750
e 78 768
e 78 636
e 79 185
e 79 299
e 79 204
e 81 249
e 81 808
e 81 916
e 81 287
e 82 190
e 82 355
e 82 663
e 83 441
e 83 446
e 83 500
e 83 996
e 83 882
e 83 385
e 83 895
e 85 642
e 85 908
e 85 989
e 85 436
e 86 847
e 86 535
e 86 900
e 86 219
e 86 672
e 87 898
e 87 452
e 87 126
e 88 335
e 88 643
e 88 885
e 88 511
e 88 448
e 88 174
e 89 956
e 89 368
e 89 709
e 89 651
e 90 696
e 90 418
e 90 465
e 90 320
e 90 505
e 90 424
e 90 257
e 90 271
e 93 779
e 93 851
e 93 349
e 94 136
e 94 666
e 94 664
e 94 117
e 94 452
e 95 778
e 95 552
e 95 610
e 95 909
e 96 852
e 96 564
e 96 335
e 96 294
e 96 207
e 96 591
e 97 994
e 97 765
e 97 635
e 100 523
e 100 257
e 100 961
e 100 671
e 102 721
e 102 345
e 102 795
e 102 223
e 103 945
e 103 489
e 103 605
e 104 170
e 104 105
e 104 930
e 104 886
e 105 470
e 105 556
e 105 855
e 105 851
e 105 864
e 106 303
e 106 922
e 106 777
e 106 479
e 106 496
e 106 264
e 106 365
e 107 867
e 107 382
e 107 868
e 107 843
e 108 216
e 108 399
e 108 581
e 110 224
e 110 188
e 110 383
e 110 312
e 111 687
e 111 539
e 111 487
e 111 760
e 111 128
e 111 167
e 111 545
e 111 580
e 112 510
e 112 154
e 112 522
e 112 125
e 112 690
e 113 146
e 113 555
e 113 292
e 113 272
e 113 659
e 113 510
e 114 488
e 114 263
e 114 136
e 114 388
e 114 577
e 114 460
e 115 922
e 115 119
e 115 649
e 115 484
e 115 813
e 115 750
e 115 493
e 117 879
e 117 867
e 117 287
e 118 555
e 118 304
e 118 220
e 118 811
e 119 978
e 119 535
e 119 327
e 119 287
e 120 262
e 120 379
e 120 332
e 120 863
e 120 881
e 121 931
e 121 620
e 121 963
e 121 538
e 121 323
e 122 550
e 122 218
e 122 199
e 122 306
e 122 215
e 123 727
e 123 559
e 123 568
e 123 702
e 123 318
e 123 576
e 125 347
e 125 925
e 125 158
e 125 314
e 125 137
e 125 606
e 125 559
e 126 484
e 126 349
e 126 711
e 126 333
e 126 854
e 127 845
e 127 148
e 127 149
e 128 832
e 128 310
e 128 342
e 128 768
e 129 408
e 129 536
e 129 187
e 131 853
e 131 442
e 131 763
e 132 998
e 132 874
e 132 414
e 133 725
e 133 276
e 133 845
e 134 186
e 134 756
e 134 587
e 134 235
e 134 641
e 135 140
e 135 602
e 135 966
e 136 805
e 136 561
e 137 254
e 137 343
e 137 834
e 137 429
e 137 883
e 137 934
e 138 227
e 138 775
e 139 972
e 139 872
e 139 671
e 139 805
e 139 162
e 140 918
e 140 209
e 140 181
e 143 337
e 143 808
e 143 259
e 144 818
e 144 245
e 144 327
e 144 544
e 145 186
e 145 935
e 145 775
e 146 343
e 146 630
e 146 924
e 146 217
e 147 943
e 147 707
e 147 388
e 147 503
e 148 252
e 148 447
e 149 292
e 149 180
e 149 924
e 149 353
e 151 303
e 151 611
e 151 625
e 151 467
e 151 962
e 151 623
e 152 734
e 152 815
e 152 709
e 153 692
e 153 181
e 153 512
e 153 690
e 154 319
e 154 679
e 154 188
e 154 439
e 154 739
e 155 207
e 155 815
e 155 362
e 156 297
e 156 280
e 156 731
e 156 910
e 157 757
e 157 208
e 158 551
e 158 558
e 158 616
e 158 396
e 159 836
e 160 561
e 160 763
e 160 339
e 160 326
e 161 396
e 161 441
e 161 244
e 162 410
e 162 771
e 162 946
e 163 600
e 163 658
e 163 946
e 164 595
e 164 547
e 164 277
e 164 451
e 164 599
e 164 828
e 165 193
e 165 225
e 165 345
e 165 987
e 165 323
e 167 581
e 167 545
e 169 278
e 169 503
e 169 677
e 169 299
e 169 967
e 170 645
e 170 434
e 170 718
e 170 932
e 170 610
e 171 535
e 171 369
e 171 293
e 171 520
e 173 625
e 173 956
e 173 682
e 173 300
e 173 367
e 174 620
e 174 394
e 174 786
e 175 977
e 175 811
e 175 862
e 175 523
e 175 420
e 177 605
e 177 453
e 177 700
e 178 252
e 178 714
e 178 227
e 179 553
e 179 550
e 179 482
e 180 359
e 180 820
e 181 370
e 181 185
e 181 586
e 181 940
e 181 353
e 181 589
e 182 349
e 182 305
e 182 566
e 184 744
e 184 592
e 184 490
e 185 544
e 186 899
e 186 818
e 186 698
e 187 389
e 187 524
e 187 543
e 187 425
e 188 332
e 188 727
e 188 199
e 189 430
e 189 786
e 189 328
e 190 936
e 190 241
e 190 369
e 192 655
e 192 801
e 193 889
e 193 208
e 195 418
e 195 590
e 195 500
e 196 902
e 196 560
e 196 446
e 196 661
e 197 269
e 197 600
e 197 725
e 199 607
e 199 898
e 199 664
e 199 788
e 201 564
e 201 847
e 201 957
e 202 674
e 202 398
e 202 950
e 202 248
e 202 550
e 203 586
e 203 250
e 203 357
e 204 801
e 204 828
e 204 796
e 205 600
e 205 923
e 205 441
e 205 400
e 206 465
e 206 842
e 206 403
e 206 868
e 206 355
e 207 667
e 207 994
e 207 246
e 207 355
e 208 717
e 208 385
e 208 236
e 208 631
e 208 535
e 209 932
e 209 400
e 210 234
e 210 693
e 210 576
e 210 345
e 213 372
e 213 490
e 213 373
e 214 442
e 214 535
e 214 438
e 214 758
e 215 234
e 215 825
e 215 401
e 216 627
e 216 716
e 216 714
e 216 965
e 217 442
e 217 232
e 218 236
e 218 683
e 219 528
e 219 503
e 219 755
e 219 942
e 220 558
e 220 887
e 221 878
e 221 308
e 221 744
e 221 726
e 221 556
e 222 520
e 222 295
e 222 642
e 222 397
e 223 772
e 223 998
e 223 385
e 223 453
e 224 309
e 224 821
e 224 698
e 224 719
e 225 705
e 225 376
e 225 356
e 226 576
e 226 839
e 226 855
e 226 511
e 227 454
e 227 655
e 229 429
e 229 607
e 229 949
e 230 447
e 230 550
e 230 614
e 231 428
e 231 980
e 231 516
e 232 538
e 232 828
e 232 679
e 232 961
e 234 566
e 234 237
e 235 637
e 235 635
e 236 496
e 236 297
e 237 267
e 237 711
e 237 520
e 237 850
e 237 310
e 237 997
e 238 853
e 238 747
e 238 326
e 238 719
e 238 877
e 239 632
e 239 363
e 239 998
e 239 335
e 240 606
e 240 886
e 240 604
e 241 914
e 241 479
e 243 831
e 243 465
e 243 524
e 243 345
e 244 983
e 244 996
e 244 544
e 244 661
e 244 689
e 245 922
e 245 246
e 246 671
e 246 512
e 247 814
e 247 310
e 247 698
e 248 315
e 248 580
e 248 606
e 248 539
e 249 703
e 249 678
e 250 492
e 250 398
e 252 486
e 252 950
e 253 550
e 253 365
e 253 288
e 253 518
e 254 623
e 254 408
e 255 477
e 255 905
e 255 510
e 257 732
e 257 967
e 258 926
e 258 397
e 258 772
e 258 930
e 259 709
e 259 964
e 260 852
e 260 427
e 260 375
e 260 574
e 260 298
e 260 786
e 260 584
e 262 263
e 262 884
e 263 758
e 263 363
e 263 669
e 263 705
e 263 515
e 263 300
e 264 684
e 264 745
e 265 736
e 265 977
e 265 512
e 265 269
e 266 332
e 266 794
e 266 379
e 266 593
e 267 349
e 267 536
e 267 948
e 267 779
e 269 299
e 269 488
e 269 612
e 270 397
e 270 946
e 270 516
e 270 696
e 271 509
e 271 510
e 272 664
e 272 327
e 274 456
e 274 561
e 274 633
e 274 546
e 275 437
e 275 839
e 275 475
e 275 595
e 275 373
e 276 607
e 276 664
e 276 962
e 277 850
e 278 617
e 278 530
e 280 734
e 280 875
e 280 990
e 280 890
e 280 612
e 281 991
e 281 948
e 281 776
e 281 628
e 282 890
e 282 607
e 282 328
e 282 602
e 284 822
e 284 668
e 284 691
e 284 731
e 284 346
e 286 820
e 286 644
e 286 332
e 286 539
e 286 886
e 286 361
e 287 740
e 288 419
e 289 317
e 289 718
e 290 513
e 290 555
e 290 308
e 290 342
e 292 328
e 292 648
e 292 636
e 293 511
e 293 357
e 293 523
e 293 820
e 293 341
e 293 754
e 294 589
e 294 441
e 294 931
e 295 567
e 295 767
e 295 462
e 297 445
e 297 878
e 297 453
e 297 943
e 298 346
e 298 415
e 298 687
e 298 935
e 298 863
e 298 674
e 299 456
e 299 864
e 299 470
e 299 477
e 300 544
e 300 805
e 300 616
e 302 877
e 302 324
e 302 684
e 303 784
e 303 832
e 303 809
e 303 727
e 303 527
e 304 567
e 304 820
e 304 932
e 305 362
e 305 499
e 305 713
e 306 668
e 306 735
e 308 587
e 308 499
e 309 980
e 309 625
e 310 715
e 311 484
e 311 983
e 311 578
e 311 879
e 312 814
e 312 719
e 313 339
e 313 387
e 313 602
e 313 428
e 314 448
e 314 416
e 314 345
e 315 767
e 315 942
e 315 778
e 316 414
e 316 717
e 316 345
e 317 357
e 317 413
e 317 514
e 317 794
e 318 692
e 318 609
e 319 882
e 319 526
e 319 537
e 319 821
e 320 990
e 320 714
e 322 902
e 322 625
e 322 607
e 323 796
e 323 394
e 324 946
e 324 465
e 324 862
e 324 328
e 326 520
e 326 614
e 326 490
e 327 922
e 327 592
e 327 611
e 327 448
e 327 356
e 331 757
e 331 750
e 331 717
e 333 570
e 333 454
e 333 403
e 333 988
e 333 887
e 333 816
e 333 717
e 333 968
e 335 508
e 335 466
e 335 648
e 337 550
e 337 946
e 337 870
e 337 885
e 337 836
e 338 920
e 338 667
e 338 474
e 338 507
e 338 513
e 338 365
e 338 645
e 339 553
e 339 943
e 339 432
e 339 550
e 339 710
e 340 746
e 340 849
e 340 726
e 340 681
e 341 529
e 341 929
e 342 724
e 343 887
e 343 650
e 343 416
e 345 368
e 345 656
e 346 858
e 346 361
e 346 795
e 346 647
e 347 420
e 347 795
e 347 831
e 347 551
e 349 374
e 349 539
e 349 943
e 349 647
e 352 514
e 352 770
e 352 410
e 352 759
e 353 489
e 353 820
e 353 457
e 354 623
e 354 372
e 355 739
e 355 567
e 355 922
e 355 756
e 356 541
e 356 429
e 357 681
e 357 541
e 357 813
e 357 707
e 357 911
e 359 523
e 359 818
e 359 545
e 360 568
e 360 444
e 360 728
e 361 927
e 361 895
e 361 511
e 361 382
e 362 376
e 362 839
e 363 580
e 363 494
e 363 789
e 365 384
e 365 916
e 365 510
e 365 709
e 367 945
e 367 867
e 367 516
e 368 936
e 368 551
e 368 529
e 368 776
e 368 937
e 368 767
e 369 570
e 369 954
e 369 496
e 370 753
e 370 999
e 372 589
e 372 545
e 372 450
e 372 899
e 372 795
e 373 425
e 373 652
e 373 874
e 374 510
e 374 600
e 374 570
e 375 918
e 375 889
e 375 597
e 376 634
e 376 855
e 376 731
e 378 890
e 378 843
e 378 547
e 378 900
e 379 867
e 379 388
e 382 580
e 382 667
e 382 439
e 382 834
e 383 940
e 384 809
e 384 548
e 385 885
e 385 656
e 385 408
e 386 818
e 386 537
e 386 675
e 386 848
e 386 463
e 387 945
e 387 586
e 389 507
e 389 566
e 392 934
e 392 929
e 392 802
e 392 768
e 392 403
e 392 972
e 394 875
e 394 731
e 396 610
e 396 429
e 396 506
e 396 453
e 397 678
e 398 628
e 398 404
e 398 537
e 398 924
e 399 877
e 399 851
e 400 766
e 400 784
e 401 430
e 401 591
e 403 877
e 403 426
e 403 590
e 404 801
e 404 888
e 404 553
e 404 789
e 404 476
e 405 934
e 405 882
e 405 921
e 405 897
e 408 793
e 410 750
e 410 565
e 410 991
e 410 699
e 413 637
e 413 577
e 414 772
e 414 719
e 414 948
e 415 725
e 415 727
e 416 659
e 416 438
e 418 707
e 418 634
e 419 674
e 420 462
e 421 888
e 421 460
e 421 422
e 421 877
e 422 642
e 422 837
e 424 736
e 424 767
e 424 471
e 424 587
e 425 971
e 425 724
e 426 892
e 426 884
e 426 954
e 426 535
e 427 588
e 427 601
e 428 767
e 430 759
e 430 654
e 431 796
e 431 920
e 432 985
e 432 576
e 432 713
e 433 820
e 433 616
e 433 650
e 433 567
e 434 774
e 434 471
e 434 659
e 434 800
e 436 727
e 436 879
e 437 825
e 437 553
e 437 482
e 438 587
e 438 617
e 438 499
e 439 754
e 440 832
e 440 829
e 440 483
e 440 842
e 441 827
e 441 550
e 441 734
e 441 689
e 441 588
e 442 544
e 444 863
e 445 459
e 445 873
e 446 711
e 446 836
e 447 492
e 447 507
e 448 946
e 450 482
e 450 837
e 450 971
e 451 978
e 451 605
e 452 786
e 454 503
e 454 853
e 454 886
e 454 883
e 456 800
e 456 831
e 457 471
e 457 973
e 457 654
e 458 935
e 458 934
e 458 546
e 458 911
e 458 529
e 459 791
e 459 527
e 460 515
e 460 874
e 460 925
e 460 899
e 460 720
e 461 678
e 461 526
e 462 558
e 463 746
e 463 530
e 466 510
e 466 808
e 466 627
e 470 716
e 470 529
e 471 791
e 471 996
e 471 696
e 471 493
e 471 888
e 471 776
e 474 932
e 474 538
e 474 829
e 474 779
e 475 567
e 476 718
e 476 774
e 477 630
e 477 648
e 479 779
e 479 758
e 482 649
e 482 665
e 483 849
e 483 563
e 483 765
e 484 765
e 484 812
e 484 821
e 485 780
e 485 890
e 485 672
e 485 900
e 486 964
e 486 793
e 486 936
e 486 691
e 487 611
e 487 948
e 487 601
e 489 693
e 489 802
e 489 736
e 490 985
e 490 519
e 492 742
e 492 683
e 492 718
e 493 605
e 494 815
e 494 889
e 495 529
e 495 666
e 495 595
e 495 998
e 495 837
e 499 855
e 500 868
e 500 707
e 500 530
e 500 554
e 501 797
e 501 909
e 501 927
e 503 967
e 505 558
e 505 961
e 505 918
e 506 937
e 506 547
e 507 903
e 507 935
e 507 932
e 508 510
e 508 985
e 509 871
e 509 513
e 510 849
e 510 571
e 511 597
e 512 767
e 513 801
e 513 742
e 514 560
e 514 716
e 515 682
e 516 778
e 518 890
e 518 530
e 519 631
e 519 794
e 520 595
e 520 902
e 522 642
e 522 607
e 526 991
e 526 897
e 527 973
e 527 593
e 528 543
e 528 703
e 529 744
e 529 854
e 530 821
e 530 942
e 530 593
e 536 965
e 536 698
e 537 870
e 537 867
e 537 616
e 538 975
e 538 734
e 538 827
e 539 628
e 539 611
e 539 597
e 539 754
e 539 638
e 539 681
e 541 898
e 541 990
e 542 688
e 542 776
e 542 922
e 543 574
e 543 805
e 543 823
e 543 990
e 545 936
e 545 930
e 546 932
e 547 967
e 548 845
e 548 716
e 548 651
e 548 756
e 550 892
e 550 609
e 551 946
e 551 627
e 551 892
e 551 793
e 552 695
e 552 584
e 553 954
e 553 920
e 554 902
e 555 666
e 556 977
e 556 988
e 558 771
e 558 722
e 558 575
e 559 725
e 560 643
e 560 868
e 561 848
e 563 722
e 563 648
e 563 704
e 563 793
e 565 754
e 565 836
e 566 987
e 566 774
e 566 914
e 567 614
e 567 732
e 567 932
e 567 696
e 568 745
e 568 650
e 568 800
e 570 843
e 570 968
e 571 612
e 571 576
e 573 767
e 573 988
e 573 770
e 574 873
e 574 951
e 574 652
e 575 590
e 575 917
e 575 586
e 576 894
e 577 818
e 578 890
e 578 872
e 580 890
e 581 675
e 581 977
e 583 747
e 583 599
e 583 927
e 583 999
e 584 635
e 586 986
e 588 881
e 589 839
e 589 989
e 589 688
e 589 895
e 590 951
e 590 888
e 591 849
e 592 693
e 592 975
e 592 599
e 592 961
e 593 924
e 594 663
e 594 634
e 594 849
e 595 963
e 595 932
e 597 829
e 599 727
e 600 708
e 601 845
e 601 678
e 602 843
e 602 609
e 603 999
e 603 905
e 603 627
e 604 696
e 604 667
e 604 661
e 605 633
e 605 768
e 607 727
e 607 667
e 610 967
e 610 613
e 610 797
e 610 883
e 611 884
e 611 617
e 612 813
e 612 682
e 613 885
e 613 795
e 613 746
e 616 767
e 616 867
e 617 927
e 617 755
e 617 874
e 620 930
e 623 642
e 623 784
e 623 716
e 625 727
e 627 677
e 628 765
e 628 850
e 630 724
e 631 791
e 631 718
e 632 683
e 633 834
e 634 774
e 635 766
e 635 802
e 636 932
e 637 929
e 638 739
e 638 756
e 641 976
e 642 794
e 643 966
e 643 713
e 644 789
e 644 852
e 645 926
e 645 797
e 645 955
e 647 656
e 647 650
e 647 917
e 649 837
e 650 740
e 650 708
e 651 702
e 651 878
e 651 791
e 651 728
e 652 903
e 652 962
e 654 823
e 654 720
e 655 848
e 655 898
e 655 897
e 656 821
e 658 837
e 658 920
e 658 916
e 658 930
e 659 997
e 659 984
e 661 735
e 663 821
e 663 672
e 664 971
e 665 797
e 665 856
e 665 975
e 666 718
e 667 731
e 667 943
e 667 931
e 668 732
e 668 756
e 669 699
e 670 847
e 670 779
e 670 884
e 672 851
e 677 809
e 677 966
e 678 704
e 678 716
e 679 753
e 679 720
e 679 880
e 681 888
e 681 753
e 682 755
e 682 825
e 684 698
e 687 930
e 687 874
e 688 864
e 689 851
e 689 780
e 689 921
e 690 966
e 690 908
e 691 925
e 691 746
e 692 744
e 693 892
e 693 758
e 693 771
e 695 983
e 698 808
e 699 822
e 700 765
e 700 711
e 702 951
e 703 929
e 704 786
e 705 849
e 707 933
e 708 802
e 708 973
e 708 902
e 709 994
e 710 923
e 710 985
e 710 996
e 710 855
e 713 972
e 713 797
e 713 714
e 713 879
e 714 924
e 714 929
e 714 942
e 715 975
e 715 793
e 716 777
e 717 862
e 717 759
e 718 946
e 718 894
e 719 760
e 719 948
e 720 756
e 720 943
e 720 973
e 721 801
e 721 910
e 723 957
e 725 780
e 725 918
e 726 737
e 727 772
e 728 951
e 731 811
e 731 755
e 732 868
e 732 836
e 732 884
e 732 933
e 735 991
e 737 902
e 737 925
e 739 999
e 740 816
e 742 858
e 745 863
e 747 884
e 750 918
e 750 883
e 755 997
e 755 895
e 756 766
e 756 943
e 757 852
e 758 943
e 760 946
e 763 980
e 766 802
e 767 977
e 767 896
e 768 972
e 770 871
e 770 873
e 772 880
e 774 784
e 774 850
e 774 968
e 775 940
e 776 963
e 777 909
e 777 955
e 779 800
e 780 789
e 780 788
e 780 994
e 786 834
e 788 805
e 793 856
e 794 812
e 795 837
e 801 962
e 802 930
e 809 894
e 811 843
e 812 997
e 812 896
e 814 933
e 816 850
e 816 871
e 818 837
e 818 971
e 820 940
e 822 920
e 823 956
e 823 914
e 825 984
e 827 889
e 827 909
e 832 845
e 836 898
e 836 976
e 842 849
e 849 883
e 851 852
e 853 963
e 853 983
e 854 977
e 855 998
e 856 967
e 858 985
e 862 954
e 870 986
e 871 976
e 871 896
e 872 888
e 872 950
e 874 883
e 874 984
e 875 948
e 878 894
e 881 921
e 881 890
e 887 948
e 894 990
e 895 934
e 896 999
e 896 940
e 902 977
e 905 911
e 910 961
e 914 923
e 932 957
e 942 996
e 951 965
e 956 957
e 978 998
e 985 994
